c *********************************
c * Circuit generated by BenCGen
c *
c * CarryLookaheadBlock_5_5_5_InOutT
c *
c * Ports with 1 gate(s): 2
c * Ports with 2 gate(s): 23
c * Ports with 3 gate(s): 4
c * Ports with 4 gate(s): 3
c * Ports with 5 gate(s): 2
c * Total gates: 34
c *********************************
p cnf 44 126
1 18 0
-1 -18 0
1 -17 0
18 -17 0
-1 -18 17 0
1 6 -19 0
-1 6 19 0
1 -6 19 0
-1 -6 -19 0
1 -24 0
6 -24 0
-1 -6 24 0
2 7 -20 0
-2 7 20 0
2 -7 20 0
-2 -7 -20 0
2 -25 0
7 -25 0
-2 -7 25 0
3 8 -21 0
-3 8 21 0
3 -8 21 0
-3 -8 -21 0
3 -26 0
8 -26 0
-3 -8 26 0
4 9 -22 0
-4 9 22 0
4 -9 22 0
-4 -9 -22 0
4 -27 0
9 -27 0
-4 -9 27 0
5 10 -23 0
-5 10 23 0
5 -10 23 0
-5 -10 -23 0
5 -28 0
10 -28 0
-5 -10 28 0
17 -34 0
19 -34 0
-17 -19 34 0
17 -35 0
19 -35 0
20 -35 0
-17 -19 -20 35 0
24 -36 0
20 -36 0
-24 -20 36 0
17 -37 0
19 -37 0
20 -37 0
21 -37 0
-17 -19 -20 -21 37 0
24 -38 0
20 -38 0
21 -38 0
-24 -20 -21 38 0
25 -39 0
21 -39 0
-25 -21 39 0
17 -40 0
19 -40 0
20 -40 0
21 -40 0
22 -40 0
-17 -19 -20 -21 -22 40 0
24 -41 0
20 -41 0
21 -41 0
22 -41 0
-24 -20 -21 -22 41 0
25 -42 0
21 -42 0
22 -42 0
-25 -21 -22 42 0
26 -43 0
22 -43 0
-26 -22 43 0
-24 29 0
-34 29 0
24 34 -29 0
-25 30 0
-35 30 0
-36 30 0
25 35 36 -30 0
-26 31 0
-37 31 0
-38 31 0
-39 31 0
26 37 38 39 -31 0
-27 32 0
-40 32 0
-41 32 0
-42 32 0
-43 32 0
27 40 41 42 43 -32 0
32 -44 0
23 -44 0
-32 -23 44 0
-28 33 0
-44 33 0
28 44 -33 0
19 17 -11 0
-19 17 11 0
19 -17 11 0
-19 -17 -11 0
20 29 -12 0
-20 29 12 0
20 -29 12 0
-20 -29 -12 0
21 30 -13 0
-21 30 13 0
21 -30 13 0
-21 -30 -13 0
22 31 -14 0
-22 31 14 0
22 -31 14 0
-22 -31 -14 0
23 32 -15 0
-23 32 15 0
23 -32 15 0
-23 -32 -15 0
33 -16 0
-33 16 0
